p cnf 60 614
1 2 3 0
4 5 6 0
7 8 9 0
10 11 12 0
13 14 15 0
16 17 18 0
19 20 21 0
22 23 24 0
25 26 27 0
28 29 30 0
31 32 33 0
34 35 36 0
37 38 39 0
40 41 42 0
43 44 45 0
46 47 48 0
49 50 51 0
52 53 54 0
55 56 57 0
58 59 60 0
-1 -2 0
-1 -3 0
-2 -3 0
-4 -5 0
-4 -6 0
-5 -6 0
-7 -8 0
-7 -9 0
-8 -9 0
-10 -11 0
-10 -12 0
-11 -12 0
-13 -14 0
-13 -15 0
-14 -15 0
-16 -17 0
-16 -18 0
-17 -18 0
-19 -20 0
-19 -21 0
-20 -21 0
-22 -23 0
-22 -24 0
-23 -24 0
-25 -26 0
-25 -27 0
-26 -27 0
-28 -29 0
-28 -30 0
-29 -30 0
-31 -32 0
-31 -33 0
-32 -33 0
-34 -35 0
-34 -36 0
-35 -36 0
-37 -38 0
-37 -39 0
-38 -39 0
-40 -41 0
-40 -42 0
-41 -42 0
-43 -44 0
-43 -45 0
-44 -45 0
-46 -47 0
-46 -48 0
-47 -48 0
-49 -50 0
-49 -51 0
-50 -51 0
-52 -53 0
-52 -54 0
-53 -54 0
-55 -56 0
-55 -57 0
-56 -57 0
-58 -59 0
-58 -60 0
-59 -60 0
-1 -13 0
-1 -19 0
-1 -28 0
-1 -34 0
-1 -37 0
-1 -40 0
-1 -43 0
-1 -52 0
-1 -55 0
-4 -7 0
-4 -10 0
-4 -13 0
-4 -16 0
-4 -25 0
-4 -28 0
-4 -31 0
-4 -40 0
-7 -4 0
-7 -10 0
-7 -16 0
-7 -19 0
-7 -28 0
-7 -46 0
-7 -52 0
-7 -55 0
-10 -4 0
-10 -7 0
-10 -16 0
-10 -22 0
-10 -25 0
-10 -28 0
-10 -31 0
-10 -40 0
-10 -46 0
-10 -52 0
-13 -1 0
-13 -4 0
-13 -16 0
-13 -25 0
-13 -31 0
-13 -37 0
-13 -40 0
-13 -46 0
-13 -55 0
-16 -4 0
-16 -7 0
-16 -10 0
-16 -13 0
-16 -22 0
-16 -31 0
-16 -34 0
-16 -40 0
-16 -46 0
-16 -52 0
-19 -1 0
-19 -7 0
-19 -22 0
-19 -31 0
-19 -34 0
-19 -37 0
-19 -43 0
-19 -46 0
-19 -49 0
-22 -10 0
-22 -16 0
-22 -19 0
-22 -28 0
-22 -31 0
-22 -40 0
-22 -43 0
-22 -49 0
-25 -4 0
-25 -10 0
-25 -13 0
-25 -31 0
-25 -34 0
-25 -37 0
-25 -46 0
-25 -52 0
-25 -55 0
-28 -1 0
-28 -4 0
-28 -7 0
-28 -10 0
-28 -22 0
-28 -34 0
-28 -46 0
-28 -49 0
-28 -52 0
-31 -4 0
-31 -10 0
-31 -13 0
-31 -16 0
-31 -19 0
-31 -22 0
-31 -25 0
-31 -37 0
-31 -40 0
-34 -1 0
-34 -16 0
-34 -19 0
-34 -25 0
-34 -28 0
-34 -37 0
-34 -40 0
-34 -43 0
-34 -46 0
-37 -1 0
-37 -13 0
-37 -19 0
-37 -25 0
-37 -31 0
-37 -34 0
-37 -40 0
-37 -43 0
-37 -55 0
-40 -1 0
-40 -4 0
-40 -10 0
-40 -13 0
-40 -16 0
-40 -22 0
-40 -31 0
-40 -34 0
-40 -37 0
-40 -46 0
-40 -49 0
-43 -1 0
-43 -19 0
-43 -22 0
-43 -34 0
-43 -37 0
-43 -49 0
-43 -52 0
-46 -7 0
-46 -10 0
-46 -13 0
-46 -16 0
-46 -19 0
-46 -25 0
-46 -28 0
-46 -34 0
-46 -40 0
-46 -49 0
-49 -4 0
-49 -19 0
-49 -22 0
-49 -28 0
-49 -31 0
-49 -40 0
-49 -43 0
-49 -46 0
-52 -1 0
-52 -7 0
-52 -10 0
-52 -16 0
-52 -25 0
-52 -28 0
-52 -43 0
-52 -49 0
-55 -1 0
-55 -7 0
-55 -13 0
-55 -16 0
-55 -19 0
-55 -22 0
-55 -25 0
-55 -34 0
-55 -37 0
-58 -1 0
-58 -7 0
-58 -10 0
-58 -13 0
-58 -25 0
-58 -28 0
-58 -37 0
-58 -40 0
-58 -46 0
-2 -14 0
-2 -20 0
-2 -29 0
-2 -35 0
-2 -38 0
-2 -41 0
-2 -44 0
-2 -53 0
-2 -56 0
-5 -8 0
-5 -11 0
-5 -14 0
-5 -17 0
-5 -26 0
-5 -29 0
-5 -32 0
-5 -41 0
-8 -5 0
-8 -11 0
-8 -17 0
-8 -20 0
-8 -29 0
-8 -47 0
-8 -53 0
-8 -56 0
-11 -5 0
-11 -8 0
-11 -17 0
-11 -23 0
-11 -26 0
-11 -29 0
-11 -32 0
-11 -41 0
-11 -47 0
-11 -53 0
-14 -2 0
-14 -5 0
-14 -17 0
-14 -26 0
-14 -32 0
-14 -38 0
-14 -41 0
-14 -47 0
-14 -56 0
-17 -5 0
-17 -8 0
-17 -11 0
-17 -14 0
-17 -23 0
-17 -32 0
-17 -35 0
-17 -41 0
-17 -47 0
-17 -53 0
-20 -2 0
-20 -8 0
-20 -23 0
-20 -32 0
-20 -35 0
-20 -38 0
-20 -44 0
-20 -47 0
-20 -50 0
-23 -11 0
-23 -17 0
-23 -20 0
-23 -29 0
-23 -32 0
-23 -41 0
-23 -44 0
-23 -50 0
-26 -5 0
-26 -11 0
-26 -14 0
-26 -32 0
-26 -35 0
-26 -38 0
-26 -47 0
-26 -53 0
-26 -56 0
-29 -2 0
-29 -5 0
-29 -8 0
-29 -11 0
-29 -23 0
-29 -35 0
-29 -47 0
-29 -50 0
-29 -53 0
-32 -5 0
-32 -11 0
-32 -14 0
-32 -17 0
-32 -20 0
-32 -23 0
-32 -26 0
-32 -38 0
-32 -41 0
-35 -2 0
-35 -17 0
-35 -20 0
-35 -26 0
-35 -29 0
-35 -38 0
-35 -41 0
-35 -44 0
-35 -47 0
-38 -2 0
-38 -14 0
-38 -20 0
-38 -26 0
-38 -32 0
-38 -35 0
-38 -41 0
-38 -44 0
-38 -56 0
-41 -2 0
-41 -5 0
-41 -11 0
-41 -14 0
-41 -17 0
-41 -23 0
-41 -32 0
-41 -35 0
-41 -38 0
-41 -47 0
-41 -50 0
-44 -2 0
-44 -20 0
-44 -23 0
-44 -35 0
-44 -38 0
-44 -50 0
-44 -53 0
-47 -8 0
-47 -11 0
-47 -14 0
-47 -17 0
-47 -20 0
-47 -26 0
-47 -29 0
-47 -35 0
-47 -41 0
-47 -50 0
-50 -5 0
-50 -20 0
-50 -23 0
-50 -29 0
-50 -32 0
-50 -41 0
-50 -44 0
-50 -47 0
-53 -2 0
-53 -8 0
-53 -11 0
-53 -17 0
-53 -26 0
-53 -29 0
-53 -44 0
-53 -50 0
-56 -2 0
-56 -8 0
-56 -14 0
-56 -17 0
-56 -20 0
-56 -23 0
-56 -26 0
-56 -35 0
-56 -38 0
-59 -2 0
-59 -8 0
-59 -11 0
-59 -14 0
-59 -26 0
-59 -29 0
-59 -38 0
-59 -41 0
-59 -47 0
-3 -15 0
-3 -21 0
-3 -30 0
-3 -36 0
-3 -39 0
-3 -42 0
-3 -45 0
-3 -54 0
-3 -57 0
-6 -9 0
-6 -12 0
-6 -15 0
-6 -18 0
-6 -27 0
-6 -30 0
-6 -33 0
-6 -42 0
-9 -6 0
-9 -12 0
-9 -18 0
-9 -21 0
-9 -30 0
-9 -48 0
-9 -54 0
-9 -57 0
-12 -6 0
-12 -9 0
-12 -18 0
-12 -24 0
-12 -27 0
-12 -30 0
-12 -33 0
-12 -42 0
-12 -48 0
-12 -54 0
-15 -3 0
-15 -6 0
-15 -18 0
-15 -27 0
-15 -33 0
-15 -39 0
-15 -42 0
-15 -48 0
-15 -57 0
-18 -6 0
-18 -9 0
-18 -12 0
-18 -15 0
-18 -24 0
-18 -33 0
-18 -36 0
-18 -42 0
-18 -48 0
-18 -54 0
-21 -3 0
-21 -9 0
-21 -24 0
-21 -33 0
-21 -36 0
-21 -39 0
-21 -45 0
-21 -48 0
-21 -51 0
-24 -12 0
-24 -18 0
-24 -21 0
-24 -30 0
-24 -33 0
-24 -42 0
-24 -45 0
-24 -51 0
-27 -6 0
-27 -12 0
-27 -15 0
-27 -33 0
-27 -36 0
-27 -39 0
-27 -48 0
-27 -54 0
-27 -57 0
-30 -3 0
-30 -6 0
-30 -9 0
-30 -12 0
-30 -24 0
-30 -36 0
-30 -48 0
-30 -51 0
-30 -54 0
-33 -6 0
-33 -12 0
-33 -15 0
-33 -18 0
-33 -21 0
-33 -24 0
-33 -27 0
-33 -39 0
-33 -42 0
-36 -3 0
-36 -18 0
-36 -21 0
-36 -27 0
-36 -30 0
-36 -39 0
-36 -42 0
-36 -45 0
-36 -48 0
-39 -3 0
-39 -15 0
-39 -21 0
-39 -27 0
-39 -33 0
-39 -36 0
-39 -42 0
-39 -45 0
-39 -57 0
-42 -3 0
-42 -6 0
-42 -12 0
-42 -15 0
-42 -18 0
-42 -24 0
-42 -33 0
-42 -36 0
-42 -39 0
-42 -48 0
-42 -51 0
-45 -3 0
-45 -21 0
-45 -24 0
-45 -36 0
-45 -39 0
-45 -51 0
-45 -54 0
-48 -9 0
-48 -12 0
-48 -15 0
-48 -18 0
-48 -21 0
-48 -27 0
-48 -30 0
-48 -36 0
-48 -42 0
-48 -51 0
-51 -6 0
-51 -21 0
-51 -24 0
-51 -30 0
-51 -33 0
-51 -42 0
-51 -45 0
-51 -48 0
-54 -3 0
-54 -9 0
-54 -12 0
-54 -18 0
-54 -27 0
-54 -30 0
-54 -45 0
-54 -51 0
-57 -3 0
-57 -9 0
-57 -15 0
-57 -18 0
-57 -21 0
-57 -24 0
-57 -27 0
-57 -36 0
-57 -39 0
-60 -3 0
-60 -9 0
-60 -12 0
-60 -15 0
-60 -27 0
-60 -30 0
-60 -39 0
-60 -42 0
-60 -48 0
